1000
[202,203,204,205,206,208,209,210,211,212,213,214,216,217,219,220,221,222,224,226,227,228,229,230,234,235,237,238,239,241,242,243,244,245,246,247,248,249,250,251,252,253,254,256,258,259,260,261,262,264,266,267,268,270,271,272,273,274,275,277,278,279,280,281,282,284,285,286,287,288,290,291,292,293,294,295,296,297,299,301,302,303,304,305,306,308,310,311,312,313,314,315,316,317,318,319,321,323,324,325,326,328,329,330,331,332,333,335,336,337,338,339,340,341,342,344,345,346,347,349,350,351,352,353,355,357,358,359,360,361,362,363,364,365,366,367,368,370,371,372,373,374,376,378,379,380,381,382,383,384,385,387,388,389,390,391,392,393,394,395,396,397,399,401,402,403,404,405,406,408,409,410,411,412,413,414,415,417,418,419,420,421,422,423,425,426,427,429,430,431,432,434,437,438,439,440,441,443,444,445,446,447,448,449,450,451,452,453,454,455,456,457,458,460,461,462,463,465,466,468,469,470,471,472,473,474,475,476,477,478,479,480,481,482,483,485,486,487,488,489,490,491,492,493,495,496,498,500,501,503,504,505,506,507,508,509,510,512,513,514,515,516,517,518,519,520,521,522,523,524,525,526,528,529,533,534,535,536,537,538,540,541,542,543,544,545,547,548,549,550,552,553,554,555,556,557,558,559,560,561,563,564,565,567,568,572,573,574,576,577,578,579,580,581,582,583,584,585,586,588,589,590,591,592,593,595,597,598,599,600,601,603,604,606,607,608,609,612,615,617,618,619,620,621,622,623,624,625,626,627,628,629,631,633,634,635,636,637,639,640,641,644,646,647,648,649,650,652,653,655,656,657,658,660,661,662,663,665,666,667,668,670,671,672,674,675,676,677,678,679,682,683,684,685,687,688,689,690,691,692,693,694,696,697,698,699,700,702,703,704,705,706,707,708,709,710,711,712,713,714,715,716,717,718,719,720,722,723,724,725,726,727,728,729,730,731,732,733,734,735,737,739,740,741,742,743,745,746,748,749,750,751,752,753,754,755,756,757,758,759,760,761,762,764,765,766,767,768,769,770,771,772,773,774,775,776,777,778,779,780,781,782,784,785,786,787,788,791,792,794,795,796,797,798,799,800]
[2,1,1,2,2,2,2,2,5,4,2,2,3,2,2,1,4,1,1,3,1,2,3,1,3,4,2,1,3,1,1,1,1,3,3,1,3,4,2,1,2,6,1,1,2,1,1,1,2,3,3,3,2,1,3,3,3,2,1,1,2,1,4,2,1,3,1,1,3,5,2,1,1,3,1,1,2,2,2,2,1,2,3,3,1,2,1,3,2,1,3,1,2,2,1,2,2,1,2,2,2,2,2,3,1,2,1,5,3,3,1,2,1,1,4,2,3,3,3,3,3,1,1,1,5,3,4,1,2,4,3,4,2,3,1,2,1,2,2,2,1,1,3,3,1,4,7,4,1,2,1,3,1,4,2,1,1,2,2,1,2,1,2,2,3,1,3,3,2,3,1,3,2,3,2,2,3,2,1,1,3,1,1,3,1,2,1,2,2,1,2,2,2,2,2,3,1,2,1,2,1,2,1,1,2,2,1,3,2,1,2,3,3,2,2,2,1,1,1,1,1,3,1,1,1,4,1,1,4,1,2,4,3,1,2,1,3,3,3,3,1,1,2,1,3,1,1,3,3,3,3,2,2,2,4,1,2,2,3,1,2,1,1,2,1,4,2,1,3,2,5,2,1,3,2,2,2,1,3,1,7,2,1,4,1,1,1,2,1,1,2,3,2,2,3,3,2,2,1,1,1,2,3,1,2,2,2,2,3,1,3,2,1,4,1,1,2,2,4,2,1,2,1,4,2,1,3,4,2,1,1,1,1,1,2,1,3,1,5,4,2,5,1,1,1,1,1,2,1,2,1,3,3,3,1,4,3,1,4,1,1,1,2,2,2,3,2,7,2,3,2,1,1,1,2,1,2,1,2,1,2,2,2,3,2,4,3,2,1,3,1,1,1,3,2,3,1,2,3,1,5,1,2,1,3,3,2,1,3,2,2,3,1,1,1,1,1,1,1,1,2,1,3,2,1,1,3,3,1,3,2,1,1,2,1,2,2,4,1,2,3,1,3,3,1,2,2,3,2,3,2,1,1,2,1,1,1,3,2,1,1,2,2,1,2,1,1,2,3,2,3,2,2,3,1,1,1,1,1,1,1,2,2,2,2,1,1,3,2,1,3,4,2,1,1,1]
